NPROCS=0
This instance is clustered!
Gurobi Optimizer version 9.0.0 build v9.0.0rc2 (linux64)
Optimize a model with 22 rows, 122 columns and 242 nonzeros
Model fingerprint: 0x0911081b
Variable types: 1 continuous, 121 integer (121 binary)
Coefficient statistics:
  Matrix range     [1e+00, 1e+00]
  Objective range  [1e+00, 8e+01]
  Bounds range     [1e+00, 1e+00]
  RHS range        [1e+00, 1e+00]
Presolve removed 2 rows and 30 columns
Presolve time: 0.00s
Presolved: 20 rows, 92 columns, 182 nonzeros
Variable types: 1 continuous, 91 integer (91 binary)

Root relaxation: objective 1.391882e+02, 18 iterations, 0.00 seconds

    Nodes    |    Current Node    |     Objective Bounds      |     Work
 Expl Unexpl |  Obj  Depth IntInf | Incumbent    BestBd   Gap | It/Node Time

     0     0  163.89426    0   12          -  163.89426      -     -    0s
H    0     0                     247.6926080  163.89426  33.8%     -    0s
     0     0  166.88521    0   22  247.69261  166.88521  32.6%     -    0s
H    0     0                     232.8935353  166.88521  28.3%     -    0s
H    0     0                     219.8177047  166.88521  24.1%     -    0s
     0     0  166.88521    0   22  219.81770  166.88521  24.1%     -    0s
     0     2  166.88521    0   22  219.81770  166.88521  24.1%     -    0s

Cutting planes:
  Gomory: 1
  Lazy constraints: 706

Explored 2092 nodes (5174 simplex iterations) in 0.32 seconds
Thread count was 12 (of 12 available processors)

Solution count 3: 219.818 232.894 247.693 

Optimal solution found (tolerance 1.00e-04)
Best objective 2.198177046784e+02, best bound 2.198177046784e+02, gap 0.0000%

User-callback calls 5103, time in user-callback 0.03 sec
/projects/academic/josewalt/caigao/RRARP_BD/BendersDecomp/ret/model_outs/n_9_h_9_algo_2.out
 =====>>>>> Solution is written to file in <../ret/model_outs> !!!
===>> All Done!
